(set-logic QF_LRA)
(declare-fun X0 () Real )
(declare-fun Y0 () Real )
(declare-fun X1 () Real )
(declare-fun Y1 () Real )
(declare-fun X2 () Real )
(declare-fun Y2 () Real )
(declare-fun X3 () Real )
(declare-fun Y3 () Real )
(declare-fun X4 () Real )
(declare-fun Y4 () Real )
(declare-fun X5 () Real )
(declare-fun Y5 () Real )
(declare-fun X6 () Real )
(declare-fun Y6 () Real )
(declare-fun X7 () Real )
(declare-fun Y7 () Real )
(declare-fun X8 () Real )
(declare-fun Y8 () Real )
(declare-fun X9 () Real )
(declare-fun Y9 () Real )
(declare-fun X10 () Real )
(declare-fun Y10 () Real )
(declare-fun X11 () Real )
(declare-fun Y11 () Real )
(declare-fun X12 () Real )
(declare-fun Y12 () Real )
(declare-fun X13 () Real )
(declare-fun Y13 () Real )
(declare-fun X14 () Real )
(declare-fun Y14 () Real )
(declare-fun X15 () Real )
(declare-fun Y15 () Real )
(declare-fun X16 () Real )
(declare-fun Y16 () Real )
(declare-fun X17 () Real )
(declare-fun Y17 () Real )
(declare-fun Z () Real )
(declare-fun k () Real )
(assert (let
(( $goal (>= Z k) ))
(let
((
$phi ( and 
( or ( <= ( + X0 25 ) X1 )  ( <= ( + X1 50 ) X0 )  ( <= ( + Y0 49 ) Y1 )  ( <= ( + Y1 82 ) Y0 )  )
( or ( <= ( + X0 25 ) X2 )  ( <= ( + X2 94 ) X0 )  ( <= ( + Y0 49 ) Y2 )  ( <= ( + Y2 30 ) Y0 )  )
( or ( <= ( + X0 25 ) X3 )  ( <= ( + X3 69 ) X0 )  ( <= ( + Y0 49 ) Y3 )  ( <= ( + Y3 70 ) Y0 )  )
( or ( <= ( + X0 25 ) X4 )  ( <= ( + X4 98 ) X0 )  ( <= ( + Y0 49 ) Y4 )  ( <= ( + Y4 92 ) Y0 )  )
( or ( <= ( + X0 25 ) X5 )  ( <= ( + X5 50 ) X0 )  ( <= ( + Y0 49 ) Y5 )  ( <= ( + Y5 38 ) Y0 )  )
( or ( <= ( + X0 25 ) X6 )  ( <= ( + X6 95 ) X0 )  ( <= ( + Y0 49 ) Y6 )  ( <= ( + Y6 91 ) Y0 )  )
( or ( <= ( + X0 25 ) X7 )  ( <= ( + X7 88 ) X0 )  ( <= ( + Y0 49 ) Y7 )  ( <= ( + Y7 81 ) Y0 )  )
( or ( <= ( + X0 25 ) X8 )  ( <= ( + X8 4 ) X0 )  ( <= ( + Y0 49 ) Y8 )  ( <= ( + Y8 64 ) Y0 )  )
( or ( <= ( + X0 25 ) X9 )  ( <= ( + X9 98 ) X0 )  ( <= ( + Y0 49 ) Y9 )  ( <= ( + Y9 41 ) Y0 )  )
( or ( <= ( + X0 25 ) X10 )  ( <= ( + X10 37 ) X0 )  ( <= ( + Y0 49 ) Y10 )  ( <= ( + Y10 19 ) Y0 )  )
( or ( <= ( + X0 25 ) X11 )  ( <= ( + X11 43 ) X0 )  ( <= ( + Y0 49 ) Y11 )  ( <= ( + Y11 69 ) Y0 )  )
( or ( <= ( + X0 25 ) X12 )  ( <= ( + X12 48 ) X0 )  ( <= ( + Y0 49 ) Y12 )  ( <= ( + Y12 41 ) Y0 )  )
( or ( <= ( + X0 25 ) X13 )  ( <= ( + X13 74 ) X0 )  ( <= ( + Y0 49 ) Y13 )  ( <= ( + Y13 44 ) Y0 )  )
( or ( <= ( + X0 25 ) X14 )  ( <= ( + X14 98 ) X0 )  ( <= ( + Y0 49 ) Y14 )  ( <= ( + Y14 18 ) Y0 )  )
( or ( <= ( + X0 25 ) X15 )  ( <= ( + X15 6 ) X0 )  ( <= ( + Y0 49 ) Y15 )  ( <= ( + Y15 34 ) Y0 )  )
( or ( <= ( + X0 25 ) X16 )  ( <= ( + X16 2 ) X0 )  ( <= ( + Y0 49 ) Y16 )  ( <= ( + Y16 12 ) Y0 )  )
( or ( <= ( + X0 25 ) X17 )  ( <= ( + X17 97 ) X0 )  ( <= ( + Y0 49 ) Y17 )  ( <= ( + Y17 68 ) Y0 )  )
( or ( <= ( + X1 50 ) X2 )  ( <= ( + X2 94 ) X1 )  ( <= ( + Y1 82 ) Y2 )  ( <= ( + Y2 30 ) Y1 )  )
( or ( <= ( + X1 50 ) X3 )  ( <= ( + X3 69 ) X1 )  ( <= ( + Y1 82 ) Y3 )  ( <= ( + Y3 70 ) Y1 )  )
( or ( <= ( + X1 50 ) X4 )  ( <= ( + X4 98 ) X1 )  ( <= ( + Y1 82 ) Y4 )  ( <= ( + Y4 92 ) Y1 )  )
( or ( <= ( + X1 50 ) X5 )  ( <= ( + X5 50 ) X1 )  ( <= ( + Y1 82 ) Y5 )  ( <= ( + Y5 38 ) Y1 )  )
( or ( <= ( + X1 50 ) X6 )  ( <= ( + X6 95 ) X1 )  ( <= ( + Y1 82 ) Y6 )  ( <= ( + Y6 91 ) Y1 )  )
( or ( <= ( + X1 50 ) X7 )  ( <= ( + X7 88 ) X1 )  ( <= ( + Y1 82 ) Y7 )  ( <= ( + Y7 81 ) Y1 )  )
( or ( <= ( + X1 50 ) X8 )  ( <= ( + X8 4 ) X1 )  ( <= ( + Y1 82 ) Y8 )  ( <= ( + Y8 64 ) Y1 )  )
( or ( <= ( + X1 50 ) X9 )  ( <= ( + X9 98 ) X1 )  ( <= ( + Y1 82 ) Y9 )  ( <= ( + Y9 41 ) Y1 )  )
( or ( <= ( + X1 50 ) X10 )  ( <= ( + X10 37 ) X1 )  ( <= ( + Y1 82 ) Y10 )  ( <= ( + Y10 19 ) Y1 )  )
( or ( <= ( + X1 50 ) X11 )  ( <= ( + X11 43 ) X1 )  ( <= ( + Y1 82 ) Y11 )  ( <= ( + Y11 69 ) Y1 )  )
( or ( <= ( + X1 50 ) X12 )  ( <= ( + X12 48 ) X1 )  ( <= ( + Y1 82 ) Y12 )  ( <= ( + Y12 41 ) Y1 )  )
( or ( <= ( + X1 50 ) X13 )  ( <= ( + X13 74 ) X1 )  ( <= ( + Y1 82 ) Y13 )  ( <= ( + Y13 44 ) Y1 )  )
( or ( <= ( + X1 50 ) X14 )  ( <= ( + X14 98 ) X1 )  ( <= ( + Y1 82 ) Y14 )  ( <= ( + Y14 18 ) Y1 )  )
( or ( <= ( + X1 50 ) X15 )  ( <= ( + X15 6 ) X1 )  ( <= ( + Y1 82 ) Y15 )  ( <= ( + Y15 34 ) Y1 )  )
( or ( <= ( + X1 50 ) X16 )  ( <= ( + X16 2 ) X1 )  ( <= ( + Y1 82 ) Y16 )  ( <= ( + Y16 12 ) Y1 )  )
( or ( <= ( + X1 50 ) X17 )  ( <= ( + X17 97 ) X1 )  ( <= ( + Y1 82 ) Y17 )  ( <= ( + Y17 68 ) Y1 )  )
( or ( <= ( + X2 94 ) X3 )  ( <= ( + X3 69 ) X2 )  ( <= ( + Y2 30 ) Y3 )  ( <= ( + Y3 70 ) Y2 )  )
( or ( <= ( + X2 94 ) X4 )  ( <= ( + X4 98 ) X2 )  ( <= ( + Y2 30 ) Y4 )  ( <= ( + Y4 92 ) Y2 )  )
( or ( <= ( + X2 94 ) X5 )  ( <= ( + X5 50 ) X2 )  ( <= ( + Y2 30 ) Y5 )  ( <= ( + Y5 38 ) Y2 )  )
( or ( <= ( + X2 94 ) X6 )  ( <= ( + X6 95 ) X2 )  ( <= ( + Y2 30 ) Y6 )  ( <= ( + Y6 91 ) Y2 )  )
( or ( <= ( + X2 94 ) X7 )  ( <= ( + X7 88 ) X2 )  ( <= ( + Y2 30 ) Y7 )  ( <= ( + Y7 81 ) Y2 )  )
( or ( <= ( + X2 94 ) X8 )  ( <= ( + X8 4 ) X2 )  ( <= ( + Y2 30 ) Y8 )  ( <= ( + Y8 64 ) Y2 )  )
( or ( <= ( + X2 94 ) X9 )  ( <= ( + X9 98 ) X2 )  ( <= ( + Y2 30 ) Y9 )  ( <= ( + Y9 41 ) Y2 )  )
( or ( <= ( + X2 94 ) X10 )  ( <= ( + X10 37 ) X2 )  ( <= ( + Y2 30 ) Y10 )  ( <= ( + Y10 19 ) Y2 )  )
( or ( <= ( + X2 94 ) X11 )  ( <= ( + X11 43 ) X2 )  ( <= ( + Y2 30 ) Y11 )  ( <= ( + Y11 69 ) Y2 )  )
( or ( <= ( + X2 94 ) X12 )  ( <= ( + X12 48 ) X2 )  ( <= ( + Y2 30 ) Y12 )  ( <= ( + Y12 41 ) Y2 )  )
( or ( <= ( + X2 94 ) X13 )  ( <= ( + X13 74 ) X2 )  ( <= ( + Y2 30 ) Y13 )  ( <= ( + Y13 44 ) Y2 )  )
( or ( <= ( + X2 94 ) X14 )  ( <= ( + X14 98 ) X2 )  ( <= ( + Y2 30 ) Y14 )  ( <= ( + Y14 18 ) Y2 )  )
( or ( <= ( + X2 94 ) X15 )  ( <= ( + X15 6 ) X2 )  ( <= ( + Y2 30 ) Y15 )  ( <= ( + Y15 34 ) Y2 )  )
( or ( <= ( + X2 94 ) X16 )  ( <= ( + X16 2 ) X2 )  ( <= ( + Y2 30 ) Y16 )  ( <= ( + Y16 12 ) Y2 )  )
( or ( <= ( + X2 94 ) X17 )  ( <= ( + X17 97 ) X2 )  ( <= ( + Y2 30 ) Y17 )  ( <= ( + Y17 68 ) Y2 )  )
( or ( <= ( + X3 69 ) X4 )  ( <= ( + X4 98 ) X3 )  ( <= ( + Y3 70 ) Y4 )  ( <= ( + Y4 92 ) Y3 )  )
( or ( <= ( + X3 69 ) X5 )  ( <= ( + X5 50 ) X3 )  ( <= ( + Y3 70 ) Y5 )  ( <= ( + Y5 38 ) Y3 )  )
( or ( <= ( + X3 69 ) X6 )  ( <= ( + X6 95 ) X3 )  ( <= ( + Y3 70 ) Y6 )  ( <= ( + Y6 91 ) Y3 )  )
( or ( <= ( + X3 69 ) X7 )  ( <= ( + X7 88 ) X3 )  ( <= ( + Y3 70 ) Y7 )  ( <= ( + Y7 81 ) Y3 )  )
( or ( <= ( + X3 69 ) X8 )  ( <= ( + X8 4 ) X3 )  ( <= ( + Y3 70 ) Y8 )  ( <= ( + Y8 64 ) Y3 )  )
( or ( <= ( + X3 69 ) X9 )  ( <= ( + X9 98 ) X3 )  ( <= ( + Y3 70 ) Y9 )  ( <= ( + Y9 41 ) Y3 )  )
( or ( <= ( + X3 69 ) X10 )  ( <= ( + X10 37 ) X3 )  ( <= ( + Y3 70 ) Y10 )  ( <= ( + Y10 19 ) Y3 )  )
( or ( <= ( + X3 69 ) X11 )  ( <= ( + X11 43 ) X3 )  ( <= ( + Y3 70 ) Y11 )  ( <= ( + Y11 69 ) Y3 )  )
( or ( <= ( + X3 69 ) X12 )  ( <= ( + X12 48 ) X3 )  ( <= ( + Y3 70 ) Y12 )  ( <= ( + Y12 41 ) Y3 )  )
( or ( <= ( + X3 69 ) X13 )  ( <= ( + X13 74 ) X3 )  ( <= ( + Y3 70 ) Y13 )  ( <= ( + Y13 44 ) Y3 )  )
( or ( <= ( + X3 69 ) X14 )  ( <= ( + X14 98 ) X3 )  ( <= ( + Y3 70 ) Y14 )  ( <= ( + Y14 18 ) Y3 )  )
( or ( <= ( + X3 69 ) X15 )  ( <= ( + X15 6 ) X3 )  ( <= ( + Y3 70 ) Y15 )  ( <= ( + Y15 34 ) Y3 )  )
( or ( <= ( + X3 69 ) X16 )  ( <= ( + X16 2 ) X3 )  ( <= ( + Y3 70 ) Y16 )  ( <= ( + Y16 12 ) Y3 )  )
( or ( <= ( + X3 69 ) X17 )  ( <= ( + X17 97 ) X3 )  ( <= ( + Y3 70 ) Y17 )  ( <= ( + Y17 68 ) Y3 )  )
( or ( <= ( + X4 98 ) X5 )  ( <= ( + X5 50 ) X4 )  ( <= ( + Y4 92 ) Y5 )  ( <= ( + Y5 38 ) Y4 )  )
( or ( <= ( + X4 98 ) X6 )  ( <= ( + X6 95 ) X4 )  ( <= ( + Y4 92 ) Y6 )  ( <= ( + Y6 91 ) Y4 )  )
( or ( <= ( + X4 98 ) X7 )  ( <= ( + X7 88 ) X4 )  ( <= ( + Y4 92 ) Y7 )  ( <= ( + Y7 81 ) Y4 )  )
( or ( <= ( + X4 98 ) X8 )  ( <= ( + X8 4 ) X4 )  ( <= ( + Y4 92 ) Y8 )  ( <= ( + Y8 64 ) Y4 )  )
( or ( <= ( + X4 98 ) X9 )  ( <= ( + X9 98 ) X4 )  ( <= ( + Y4 92 ) Y9 )  ( <= ( + Y9 41 ) Y4 )  )
( or ( <= ( + X4 98 ) X10 )  ( <= ( + X10 37 ) X4 )  ( <= ( + Y4 92 ) Y10 )  ( <= ( + Y10 19 ) Y4 )  )
( or ( <= ( + X4 98 ) X11 )  ( <= ( + X11 43 ) X4 )  ( <= ( + Y4 92 ) Y11 )  ( <= ( + Y11 69 ) Y4 )  )
( or ( <= ( + X4 98 ) X12 )  ( <= ( + X12 48 ) X4 )  ( <= ( + Y4 92 ) Y12 )  ( <= ( + Y12 41 ) Y4 )  )
( or ( <= ( + X4 98 ) X13 )  ( <= ( + X13 74 ) X4 )  ( <= ( + Y4 92 ) Y13 )  ( <= ( + Y13 44 ) Y4 )  )
( or ( <= ( + X4 98 ) X14 )  ( <= ( + X14 98 ) X4 )  ( <= ( + Y4 92 ) Y14 )  ( <= ( + Y14 18 ) Y4 )  )
( or ( <= ( + X4 98 ) X15 )  ( <= ( + X15 6 ) X4 )  ( <= ( + Y4 92 ) Y15 )  ( <= ( + Y15 34 ) Y4 )  )
( or ( <= ( + X4 98 ) X16 )  ( <= ( + X16 2 ) X4 )  ( <= ( + Y4 92 ) Y16 )  ( <= ( + Y16 12 ) Y4 )  )
( or ( <= ( + X4 98 ) X17 )  ( <= ( + X17 97 ) X4 )  ( <= ( + Y4 92 ) Y17 )  ( <= ( + Y17 68 ) Y4 )  )
( or ( <= ( + X5 50 ) X6 )  ( <= ( + X6 95 ) X5 )  ( <= ( + Y5 38 ) Y6 )  ( <= ( + Y6 91 ) Y5 )  )
( or ( <= ( + X5 50 ) X7 )  ( <= ( + X7 88 ) X5 )  ( <= ( + Y5 38 ) Y7 )  ( <= ( + Y7 81 ) Y5 )  )
( or ( <= ( + X5 50 ) X8 )  ( <= ( + X8 4 ) X5 )  ( <= ( + Y5 38 ) Y8 )  ( <= ( + Y8 64 ) Y5 )  )
( or ( <= ( + X5 50 ) X9 )  ( <= ( + X9 98 ) X5 )  ( <= ( + Y5 38 ) Y9 )  ( <= ( + Y9 41 ) Y5 )  )
( or ( <= ( + X5 50 ) X10 )  ( <= ( + X10 37 ) X5 )  ( <= ( + Y5 38 ) Y10 )  ( <= ( + Y10 19 ) Y5 )  )
( or ( <= ( + X5 50 ) X11 )  ( <= ( + X11 43 ) X5 )  ( <= ( + Y5 38 ) Y11 )  ( <= ( + Y11 69 ) Y5 )  )
( or ( <= ( + X5 50 ) X12 )  ( <= ( + X12 48 ) X5 )  ( <= ( + Y5 38 ) Y12 )  ( <= ( + Y12 41 ) Y5 )  )
( or ( <= ( + X5 50 ) X13 )  ( <= ( + X13 74 ) X5 )  ( <= ( + Y5 38 ) Y13 )  ( <= ( + Y13 44 ) Y5 )  )
( or ( <= ( + X5 50 ) X14 )  ( <= ( + X14 98 ) X5 )  ( <= ( + Y5 38 ) Y14 )  ( <= ( + Y14 18 ) Y5 )  )
( or ( <= ( + X5 50 ) X15 )  ( <= ( + X15 6 ) X5 )  ( <= ( + Y5 38 ) Y15 )  ( <= ( + Y15 34 ) Y5 )  )
( or ( <= ( + X5 50 ) X16 )  ( <= ( + X16 2 ) X5 )  ( <= ( + Y5 38 ) Y16 )  ( <= ( + Y16 12 ) Y5 )  )
( or ( <= ( + X5 50 ) X17 )  ( <= ( + X17 97 ) X5 )  ( <= ( + Y5 38 ) Y17 )  ( <= ( + Y17 68 ) Y5 )  )
( or ( <= ( + X6 95 ) X7 )  ( <= ( + X7 88 ) X6 )  ( <= ( + Y6 91 ) Y7 )  ( <= ( + Y7 81 ) Y6 )  )
( or ( <= ( + X6 95 ) X8 )  ( <= ( + X8 4 ) X6 )  ( <= ( + Y6 91 ) Y8 )  ( <= ( + Y8 64 ) Y6 )  )
( or ( <= ( + X6 95 ) X9 )  ( <= ( + X9 98 ) X6 )  ( <= ( + Y6 91 ) Y9 )  ( <= ( + Y9 41 ) Y6 )  )
( or ( <= ( + X6 95 ) X10 )  ( <= ( + X10 37 ) X6 )  ( <= ( + Y6 91 ) Y10 )  ( <= ( + Y10 19 ) Y6 )  )
( or ( <= ( + X6 95 ) X11 )  ( <= ( + X11 43 ) X6 )  ( <= ( + Y6 91 ) Y11 )  ( <= ( + Y11 69 ) Y6 )  )
( or ( <= ( + X6 95 ) X12 )  ( <= ( + X12 48 ) X6 )  ( <= ( + Y6 91 ) Y12 )  ( <= ( + Y12 41 ) Y6 )  )
( or ( <= ( + X6 95 ) X13 )  ( <= ( + X13 74 ) X6 )  ( <= ( + Y6 91 ) Y13 )  ( <= ( + Y13 44 ) Y6 )  )
( or ( <= ( + X6 95 ) X14 )  ( <= ( + X14 98 ) X6 )  ( <= ( + Y6 91 ) Y14 )  ( <= ( + Y14 18 ) Y6 )  )
( or ( <= ( + X6 95 ) X15 )  ( <= ( + X15 6 ) X6 )  ( <= ( + Y6 91 ) Y15 )  ( <= ( + Y15 34 ) Y6 )  )
( or ( <= ( + X6 95 ) X16 )  ( <= ( + X16 2 ) X6 )  ( <= ( + Y6 91 ) Y16 )  ( <= ( + Y16 12 ) Y6 )  )
( or ( <= ( + X6 95 ) X17 )  ( <= ( + X17 97 ) X6 )  ( <= ( + Y6 91 ) Y17 )  ( <= ( + Y17 68 ) Y6 )  )
( or ( <= ( + X7 88 ) X8 )  ( <= ( + X8 4 ) X7 )  ( <= ( + Y7 81 ) Y8 )  ( <= ( + Y8 64 ) Y7 )  )
( or ( <= ( + X7 88 ) X9 )  ( <= ( + X9 98 ) X7 )  ( <= ( + Y7 81 ) Y9 )  ( <= ( + Y9 41 ) Y7 )  )
( or ( <= ( + X7 88 ) X10 )  ( <= ( + X10 37 ) X7 )  ( <= ( + Y7 81 ) Y10 )  ( <= ( + Y10 19 ) Y7 )  )
( or ( <= ( + X7 88 ) X11 )  ( <= ( + X11 43 ) X7 )  ( <= ( + Y7 81 ) Y11 )  ( <= ( + Y11 69 ) Y7 )  )
( or ( <= ( + X7 88 ) X12 )  ( <= ( + X12 48 ) X7 )  ( <= ( + Y7 81 ) Y12 )  ( <= ( + Y12 41 ) Y7 )  )
( or ( <= ( + X7 88 ) X13 )  ( <= ( + X13 74 ) X7 )  ( <= ( + Y7 81 ) Y13 )  ( <= ( + Y13 44 ) Y7 )  )
( or ( <= ( + X7 88 ) X14 )  ( <= ( + X14 98 ) X7 )  ( <= ( + Y7 81 ) Y14 )  ( <= ( + Y14 18 ) Y7 )  )
( or ( <= ( + X7 88 ) X15 )  ( <= ( + X15 6 ) X7 )  ( <= ( + Y7 81 ) Y15 )  ( <= ( + Y15 34 ) Y7 )  )
( or ( <= ( + X7 88 ) X16 )  ( <= ( + X16 2 ) X7 )  ( <= ( + Y7 81 ) Y16 )  ( <= ( + Y16 12 ) Y7 )  )
( or ( <= ( + X7 88 ) X17 )  ( <= ( + X17 97 ) X7 )  ( <= ( + Y7 81 ) Y17 )  ( <= ( + Y17 68 ) Y7 )  )
( or ( <= ( + X8 4 ) X9 )  ( <= ( + X9 98 ) X8 )  ( <= ( + Y8 64 ) Y9 )  ( <= ( + Y9 41 ) Y8 )  )
( or ( <= ( + X8 4 ) X10 )  ( <= ( + X10 37 ) X8 )  ( <= ( + Y8 64 ) Y10 )  ( <= ( + Y10 19 ) Y8 )  )
( or ( <= ( + X8 4 ) X11 )  ( <= ( + X11 43 ) X8 )  ( <= ( + Y8 64 ) Y11 )  ( <= ( + Y11 69 ) Y8 )  )
( or ( <= ( + X8 4 ) X12 )  ( <= ( + X12 48 ) X8 )  ( <= ( + Y8 64 ) Y12 )  ( <= ( + Y12 41 ) Y8 )  )
( or ( <= ( + X8 4 ) X13 )  ( <= ( + X13 74 ) X8 )  ( <= ( + Y8 64 ) Y13 )  ( <= ( + Y13 44 ) Y8 )  )
( or ( <= ( + X8 4 ) X14 )  ( <= ( + X14 98 ) X8 )  ( <= ( + Y8 64 ) Y14 )  ( <= ( + Y14 18 ) Y8 )  )
( or ( <= ( + X8 4 ) X15 )  ( <= ( + X15 6 ) X8 )  ( <= ( + Y8 64 ) Y15 )  ( <= ( + Y15 34 ) Y8 )  )
( or ( <= ( + X8 4 ) X16 )  ( <= ( + X16 2 ) X8 )  ( <= ( + Y8 64 ) Y16 )  ( <= ( + Y16 12 ) Y8 )  )
( or ( <= ( + X8 4 ) X17 )  ( <= ( + X17 97 ) X8 )  ( <= ( + Y8 64 ) Y17 )  ( <= ( + Y17 68 ) Y8 )  )
( or ( <= ( + X9 98 ) X10 )  ( <= ( + X10 37 ) X9 )  ( <= ( + Y9 41 ) Y10 )  ( <= ( + Y10 19 ) Y9 )  )
( or ( <= ( + X9 98 ) X11 )  ( <= ( + X11 43 ) X9 )  ( <= ( + Y9 41 ) Y11 )  ( <= ( + Y11 69 ) Y9 )  )
( or ( <= ( + X9 98 ) X12 )  ( <= ( + X12 48 ) X9 )  ( <= ( + Y9 41 ) Y12 )  ( <= ( + Y12 41 ) Y9 )  )
( or ( <= ( + X9 98 ) X13 )  ( <= ( + X13 74 ) X9 )  ( <= ( + Y9 41 ) Y13 )  ( <= ( + Y13 44 ) Y9 )  )
( or ( <= ( + X9 98 ) X14 )  ( <= ( + X14 98 ) X9 )  ( <= ( + Y9 41 ) Y14 )  ( <= ( + Y14 18 ) Y9 )  )
( or ( <= ( + X9 98 ) X15 )  ( <= ( + X15 6 ) X9 )  ( <= ( + Y9 41 ) Y15 )  ( <= ( + Y15 34 ) Y9 )  )
( or ( <= ( + X9 98 ) X16 )  ( <= ( + X16 2 ) X9 )  ( <= ( + Y9 41 ) Y16 )  ( <= ( + Y16 12 ) Y9 )  )
( or ( <= ( + X9 98 ) X17 )  ( <= ( + X17 97 ) X9 )  ( <= ( + Y9 41 ) Y17 )  ( <= ( + Y17 68 ) Y9 )  )
( or ( <= ( + X10 37 ) X11 )  ( <= ( + X11 43 ) X10 )  ( <= ( + Y10 19 ) Y11 )  ( <= ( + Y11 69 ) Y10 )  )
( or ( <= ( + X10 37 ) X12 )  ( <= ( + X12 48 ) X10 )  ( <= ( + Y10 19 ) Y12 )  ( <= ( + Y12 41 ) Y10 )  )
( or ( <= ( + X10 37 ) X13 )  ( <= ( + X13 74 ) X10 )  ( <= ( + Y10 19 ) Y13 )  ( <= ( + Y13 44 ) Y10 )  )
( or ( <= ( + X10 37 ) X14 )  ( <= ( + X14 98 ) X10 )  ( <= ( + Y10 19 ) Y14 )  ( <= ( + Y14 18 ) Y10 )  )
( or ( <= ( + X10 37 ) X15 )  ( <= ( + X15 6 ) X10 )  ( <= ( + Y10 19 ) Y15 )  ( <= ( + Y15 34 ) Y10 )  )
( or ( <= ( + X10 37 ) X16 )  ( <= ( + X16 2 ) X10 )  ( <= ( + Y10 19 ) Y16 )  ( <= ( + Y16 12 ) Y10 )  )
( or ( <= ( + X10 37 ) X17 )  ( <= ( + X17 97 ) X10 )  ( <= ( + Y10 19 ) Y17 )  ( <= ( + Y17 68 ) Y10 )  )
( or ( <= ( + X11 43 ) X12 )  ( <= ( + X12 48 ) X11 )  ( <= ( + Y11 69 ) Y12 )  ( <= ( + Y12 41 ) Y11 )  )
( or ( <= ( + X11 43 ) X13 )  ( <= ( + X13 74 ) X11 )  ( <= ( + Y11 69 ) Y13 )  ( <= ( + Y13 44 ) Y11 )  )
( or ( <= ( + X11 43 ) X14 )  ( <= ( + X14 98 ) X11 )  ( <= ( + Y11 69 ) Y14 )  ( <= ( + Y14 18 ) Y11 )  )
( or ( <= ( + X11 43 ) X15 )  ( <= ( + X15 6 ) X11 )  ( <= ( + Y11 69 ) Y15 )  ( <= ( + Y15 34 ) Y11 )  )
( or ( <= ( + X11 43 ) X16 )  ( <= ( + X16 2 ) X11 )  ( <= ( + Y11 69 ) Y16 )  ( <= ( + Y16 12 ) Y11 )  )
( or ( <= ( + X11 43 ) X17 )  ( <= ( + X17 97 ) X11 )  ( <= ( + Y11 69 ) Y17 )  ( <= ( + Y17 68 ) Y11 )  )
( or ( <= ( + X12 48 ) X13 )  ( <= ( + X13 74 ) X12 )  ( <= ( + Y12 41 ) Y13 )  ( <= ( + Y13 44 ) Y12 )  )
( or ( <= ( + X12 48 ) X14 )  ( <= ( + X14 98 ) X12 )  ( <= ( + Y12 41 ) Y14 )  ( <= ( + Y14 18 ) Y12 )  )
( or ( <= ( + X12 48 ) X15 )  ( <= ( + X15 6 ) X12 )  ( <= ( + Y12 41 ) Y15 )  ( <= ( + Y15 34 ) Y12 )  )
( or ( <= ( + X12 48 ) X16 )  ( <= ( + X16 2 ) X12 )  ( <= ( + Y12 41 ) Y16 )  ( <= ( + Y16 12 ) Y12 )  )
( or ( <= ( + X12 48 ) X17 )  ( <= ( + X17 97 ) X12 )  ( <= ( + Y12 41 ) Y17 )  ( <= ( + Y17 68 ) Y12 )  )
( or ( <= ( + X13 74 ) X14 )  ( <= ( + X14 98 ) X13 )  ( <= ( + Y13 44 ) Y14 )  ( <= ( + Y14 18 ) Y13 )  )
( or ( <= ( + X13 74 ) X15 )  ( <= ( + X15 6 ) X13 )  ( <= ( + Y13 44 ) Y15 )  ( <= ( + Y15 34 ) Y13 )  )
( or ( <= ( + X13 74 ) X16 )  ( <= ( + X16 2 ) X13 )  ( <= ( + Y13 44 ) Y16 )  ( <= ( + Y16 12 ) Y13 )  )
( or ( <= ( + X13 74 ) X17 )  ( <= ( + X17 97 ) X13 )  ( <= ( + Y13 44 ) Y17 )  ( <= ( + Y17 68 ) Y13 )  )
( or ( <= ( + X14 98 ) X15 )  ( <= ( + X15 6 ) X14 )  ( <= ( + Y14 18 ) Y15 )  ( <= ( + Y15 34 ) Y14 )  )
( or ( <= ( + X14 98 ) X16 )  ( <= ( + X16 2 ) X14 )  ( <= ( + Y14 18 ) Y16 )  ( <= ( + Y16 12 ) Y14 )  )
( or ( <= ( + X14 98 ) X17 )  ( <= ( + X17 97 ) X14 )  ( <= ( + Y14 18 ) Y17 )  ( <= ( + Y17 68 ) Y14 )  )
( or ( <= ( + X15 6 ) X16 )  ( <= ( + X16 2 ) X15 )  ( <= ( + Y15 34 ) Y16 )  ( <= ( + Y16 12 ) Y15 )  )
( or ( <= ( + X15 6 ) X17 )  ( <= ( + X17 97 ) X15 )  ( <= ( + Y15 34 ) Y17 )  ( <= ( + Y17 68 ) Y15 )  )
( or ( <= ( + X16 2 ) X17 )  ( <= ( + X17 97 ) X16 )  ( <= ( + Y16 12 ) Y17 )  ( <= ( + Y17 68 ) Y16 )  )
( >= X0 0)
( <= ( + X0 25) Z)
( >= Y0 0)
( <= ( + Y0 49 ) 100)
( >= X1 0)
( <= ( + X1 50) Z)
( >= Y1 0)
( <= ( + Y1 82 ) 100)
( >= X2 0)
( <= ( + X2 94) Z)
( >= Y2 0)
( <= ( + Y2 30 ) 100)
( >= X3 0)
( <= ( + X3 69) Z)
( >= Y3 0)
( <= ( + Y3 70 ) 100)
( >= X4 0)
( <= ( + X4 98) Z)
( >= Y4 0)
( <= ( + Y4 92 ) 100)
( >= X5 0)
( <= ( + X5 50) Z)
( >= Y5 0)
( <= ( + Y5 38 ) 100)
( >= X6 0)
( <= ( + X6 95) Z)
( >= Y6 0)
( <= ( + Y6 91 ) 100)
( >= X7 0)
( <= ( + X7 88) Z)
( >= Y7 0)
( <= ( + Y7 81 ) 100)
( >= X8 0)
( <= ( + X8 4) Z)
( >= Y8 0)
( <= ( + Y8 64 ) 100)
( >= X9 0)
( <= ( + X9 98) Z)
( >= Y9 0)
( <= ( + Y9 41 ) 100)
( >= X10 0)
( <= ( + X10 37) Z)
( >= Y10 0)
( <= ( + Y10 19 ) 100)
( >= X11 0)
( <= ( + X11 43) Z)
( >= Y11 0)
( <= ( + Y11 69 ) 100)
( >= X12 0)
( <= ( + X12 48) Z)
( >= Y12 0)
( <= ( + Y12 41 ) 100)
( >= X13 0)
( <= ( + X13 74) Z)
( >= Y13 0)
( <= ( + Y13 44 ) 100)
( >= X14 0)
( <= ( + X14 98) Z)
( >= Y14 0)
( <= ( + Y14 18 ) 100)
( >= X15 0)
( <= ( + X15 6) Z)
( >= Y15 0)
( <= ( + Y15 34 ) 100)
( >= X16 0)
( <= ( + X16 2) Z)
( >= Y16 0)
( <= ( + Y16 12 ) 100)
( >= X17 0)
( <= ( + X17 97) Z)
( >= Y17 0)
( <= ( + Y17 68 ) 100)
) )
)(=> $phi $goal))))